certificates/rado_a18_c8_N219.cnf
c Rad2 upper bound instance: x1 + 18*x2 - x3 = 8, interval [1,219]
p cnf 219 2640
1 11 0
-1 -11 0
1 2 29 0
-1 -2 -29 0
1 3 47 0
-1 -3 -47 0
1 4 65 0
-1 -4 -65 0
1 5 83 0
-1 -5 -83 0
1 6 101 0
-1 -6 -101 0
1 7 119 0
-1 -7 -119 0
1 8 137 0
-1 -8 -137 0
1 9 155 0
-1 -9 -155 0
1 10 173 0
-1 -10 -173 0
1 11 191 0
-1 -11 -191 0
1 12 209 0
-1 -12 -209 0
1 2 12 0
-1 -2 -12 0
2 30 0
-2 -30 0
2 3 48 0
-2 -3 -48 0
2 4 66 0
-2 -4 -66 0
2 5 84 0
-2 -5 -84 0
2 6 102 0
-2 -6 -102 0
2 7 120 0
-2 -7 -120 0
2 8 138 0
-2 -8 -138 0
2 9 156 0
-2 -9 -156 0
2 10 174 0
-2 -10 -174 0
2 11 192 0
-2 -11 -192 0
2 12 210 0
-2 -12 -210 0
1 3 13 0
-1 -3 -13 0
2 3 31 0
-2 -3 -31 0
3 49 0
-3 -49 0
3 4 67 0
-3 -4 -67 0
3 5 85 0
-3 -5 -85 0
3 6 103 0
-3 -6 -103 0
3 7 121 0
-3 -7 -121 0
3 8 139 0
-3 -8 -139 0
3 9 157 0
-3 -9 -157 0
3 10 175 0
-3 -10 -175 0
3 11 193 0
-3 -11 -193 0
3 12 211 0
-3 -12 -211 0
1 4 14 0
-1 -4 -14 0
2 4 32 0
-2 -4 -32 0
3 4 50 0
-3 -4 -50 0
4 68 0
-4 -68 0
4 5 86 0
-4 -5 -86 0
4 6 104 0
-4 -6 -104 0
4 7 122 0
-4 -7 -122 0
4 8 140 0
-4 -8 -140 0
4 9 158 0
-4 -9 -158 0
4 10 176 0
-4 -10 -176 0
4 11 194 0
-4 -11 -194 0
4 12 212 0
-4 -12 -212 0
1 5 15 0
-1 -5 -15 0
2 5 33 0
-2 -5 -33 0
3 5 51 0
-3 -5 -51 0
4 5 69 0
-4 -5 -69 0
5 87 0
-5 -87 0
5 6 105 0
-5 -6 -105 0
5 7 123 0
-5 -7 -123 0
5 8 141 0
-5 -8 -141 0
5 9 159 0
-5 -9 -159 0
5 10 177 0
-5 -10 -177 0
5 11 195 0
-5 -11 -195 0
5 12 213 0
-5 -12 -213 0
1 6 16 0
-1 -6 -16 0
2 6 34 0
-2 -6 -34 0
3 6 52 0
-3 -6 -52 0
4 6 70 0
-4 -6 -70 0
5 6 88 0
-5 -6 -88 0
6 106 0
-6 -106 0
6 7 124 0
-6 -7 -124 0
6 8 142 0
-6 -8 -142 0
6 9 160 0
-6 -9 -160 0
6 10 178 0
-6 -10 -178 0
6 11 196 0
-6 -11 -196 0
6 12 214 0
-6 -12 -214 0
1 7 17 0
-1 -7 -17 0
2 7 35 0
-2 -7 -35 0
3 7 53 0
-3 -7 -53 0
4 7 71 0
-4 -7 -71 0
5 7 89 0
-5 -7 -89 0
6 7 107 0
-6 -7 -107 0
7 125 0
-7 -125 0
7 8 143 0
-7 -8 -143 0
7 9 161 0
-7 -9 -161 0
7 10 179 0
-7 -10 -179 0
7 11 197 0
-7 -11 -197 0
7 12 215 0
-7 -12 -215 0
1 8 18 0
-1 -8 -18 0
2 8 36 0
-2 -8 -36 0
3 8 54 0
-3 -8 -54 0
4 8 72 0
-4 -8 -72 0
5 8 90 0
-5 -8 -90 0
6 8 108 0
-6 -8 -108 0
7 8 126 0
-7 -8 -126 0
8 144 0
-8 -144 0
8 9 162 0
-8 -9 -162 0
8 10 180 0
-8 -10 -180 0
8 11 198 0
-8 -11 -198 0
8 12 216 0
-8 -12 -216 0
1 9 19 0
-1 -9 -19 0
2 9 37 0
-2 -9 -37 0
3 9 55 0
-3 -9 -55 0
4 9 73 0
-4 -9 -73 0
5 9 91 0
-5 -9 -91 0
6 9 109 0
-6 -9 -109 0
7 9 127 0
-7 -9 -127 0
8 9 145 0
-8 -9 -145 0
9 163 0
-9 -163 0
9 10 181 0
-9 -10 -181 0
9 11 199 0
-9 -11 -199 0
9 12 217 0
-9 -12 -217 0
1 10 20 0
-1 -10 -20 0
2 10 38 0
-2 -10 -38 0
3 10 56 0
-3 -10 -56 0
4 10 74 0
-4 -10 -74 0
5 10 92 0
-5 -10 -92 0
6 10 110 0
-6 -10 -110 0
7 10 128 0
-7 -10 -128 0
8 10 146 0
-8 -10 -146 0
9 10 164 0
-9 -10 -164 0
10 182 0
-10 -182 0
10 11 200 0
-10 -11 -200 0
10 12 218 0
-10 -12 -218 0
1 11 21 0
-1 -11 -21 0
2 11 39 0
-2 -11 -39 0
3 11 57 0
-3 -11 -57 0
4 11 75 0
-4 -11 -75 0
5 11 93 0
-5 -11 -93 0
6 11 111 0
-6 -11 -111 0
7 11 129 0
-7 -11 -129 0
8 11 147 0
-8 -11 -147 0
9 11 165 0
-9 -11 -165 0
10 11 183 0
-10 -11 -183 0
11 201 0
-11 -201 0
11 12 219 0
-11 -12 -219 0
1 12 22 0
-1 -12 -22 0
2 12 40 0
-2 -12 -40 0
3 12 58 0
-3 -12 -58 0
4 12 76 0
-4 -12 -76 0
5 12 94 0
-5 -12 -94 0
6 12 112 0
-6 -12 -112 0
7 12 130 0
-7 -12 -130 0
8 12 148 0
-8 -12 -148 0
9 12 166 0
-9 -12 -166 0
10 12 184 0
-10 -12 -184 0
11 12 202 0
-11 -12 -202 0
1 13 23 0
-1 -13 -23 0
2 13 41 0
-2 -13 -41 0
3 13 59 0
-3 -13 -59 0
4 13 77 0
-4 -13 -77 0
5 13 95 0
-5 -13 -95 0
6 13 113 0
-6 -13 -113 0
7 13 131 0
-7 -13 -131 0
8 13 149 0
-8 -13 -149 0
9 13 167 0
-9 -13 -167 0
10 13 185 0
-10 -13 -185 0
11 13 203 0
-11 -13 -203 0
1 14 24 0
-1 -14 -24 0
2 14 42 0
-2 -14 -42 0
3 14 60 0
-3 -14 -60 0
4 14 78 0
-4 -14 -78 0
5 14 96 0
-5 -14 -96 0
6 14 114 0
-6 -14 -114 0
7 14 132 0
-7 -14 -132 0
8 14 150 0
-8 -14 -150 0
9 14 168 0
-9 -14 -168 0
10 14 186 0
-10 -14 -186 0
11 14 204 0
-11 -14 -204 0
1 15 25 0
-1 -15 -25 0
2 15 43 0
-2 -15 -43 0
3 15 61 0
-3 -15 -61 0
4 15 79 0
-4 -15 -79 0
5 15 97 0
-5 -15 -97 0
6 15 115 0
-6 -15 -115 0
7 15 133 0
-7 -15 -133 0
8 15 151 0
-8 -15 -151 0
9 15 169 0
-9 -15 -169 0
10 15 187 0
-10 -15 -187 0
11 15 205 0
-11 -15 -205 0
1 16 26 0
-1 -16 -26 0
2 16 44 0
-2 -16 -44 0
3 16 62 0
-3 -16 -62 0
4 16 80 0
-4 -16 -80 0
5 16 98 0
-5 -16 -98 0
6 16 116 0
-6 -16 -116 0
7 16 134 0
-7 -16 -134 0
8 16 152 0
-8 -16 -152 0
9 16 170 0
-9 -16 -170 0
10 16 188 0
-10 -16 -188 0
11 16 206 0
-11 -16 -206 0
1 17 27 0
-1 -17 -27 0
2 17 45 0
-2 -17 -45 0
3 17 63 0
-3 -17 -63 0
4 17 81 0
-4 -17 -81 0
5 17 99 0
-5 -17 -99 0
6 17 117 0
-6 -17 -117 0
7 17 135 0
-7 -17 -135 0
8 17 153 0
-8 -17 -153 0
9 17 171 0
-9 -17 -171 0
10 17 189 0
-10 -17 -189 0
11 17 207 0
-11 -17 -207 0
1 18 28 0
-1 -18 -28 0
2 18 46 0
-2 -18 -46 0
3 18 64 0
-3 -18 -64 0
4 18 82 0
-4 -18 -82 0
5 18 100 0
-5 -18 -100 0
6 18 118 0
-6 -18 -118 0
7 18 136 0
-7 -18 -136 0
8 18 154 0
-8 -18 -154 0
9 18 172 0
-9 -18 -172 0
10 18 190 0
-10 -18 -190 0
11 18 208 0
-11 -18 -208 0
1 19 29 0
-1 -19 -29 0
2 19 47 0
-2 -19 -47 0
3 19 65 0
-3 -19 -65 0
4 19 83 0
-4 -19 -83 0
5 19 101 0
-5 -19 -101 0
6 19 119 0
-6 -19 -119 0
7 19 137 0
-7 -19 -137 0
8 19 155 0
-8 -19 -155 0
9 19 173 0
-9 -19 -173 0
10 19 191 0
-10 -19 -191 0
11 19 209 0
-11 -19 -209 0
1 20 30 0
-1 -20 -30 0
2 20 48 0
-2 -20 -48 0
3 20 66 0
-3 -20 -66 0
4 20 84 0
-4 -20 -84 0
5 20 102 0
-5 -20 -102 0
6 20 120 0
-6 -20 -120 0
7 20 138 0
-7 -20 -138 0
8 20 156 0
-8 -20 -156 0
9 20 174 0
-9 -20 -174 0
10 20 192 0
-10 -20 -192 0
11 20 210 0
-11 -20 -210 0
1 21 31 0
-1 -21 -31 0
2 21 49 0
-2 -21 -49 0
3 21 67 0
-3 -21 -67 0
4 21 85 0
-4 -21 -85 0
5 21 103 0
-5 -21 -103 0
6 21 121 0
-6 -21 -121 0
7 21 139 0
-7 -21 -139 0
8 21 157 0
-8 -21 -157 0
9 21 175 0
-9 -21 -175 0
10 21 193 0
-10 -21 -193 0
11 21 211 0
-11 -21 -211 0
1 22 32 0
-1 -22 -32 0
2 22 50 0
-2 -22 -50 0
3 22 68 0
-3 -22 -68 0
4 22 86 0
-4 -22 -86 0
5 22 104 0
-5 -22 -104 0
6 22 122 0
-6 -22 -122 0
7 22 140 0
-7 -22 -140 0
8 22 158 0
-8 -22 -158 0
9 22 176 0
-9 -22 -176 0
10 22 194 0
-10 -22 -194 0
11 22 212 0
-11 -22 -212 0
1 23 33 0
-1 -23 -33 0
2 23 51 0
-2 -23 -51 0
3 23 69 0
-3 -23 -69 0
4 23 87 0
-4 -23 -87 0
5 23 105 0
-5 -23 -105 0
6 23 123 0
-6 -23 -123 0
7 23 141 0
-7 -23 -141 0
8 23 159 0
-8 -23 -159 0
9 23 177 0
-9 -23 -177 0
10 23 195 0
-10 -23 -195 0
11 23 213 0
-11 -23 -213 0
1 24 34 0
-1 -24 -34 0
2 24 52 0
-2 -24 -52 0
3 24 70 0
-3 -24 -70 0
4 24 88 0
-4 -24 -88 0
5 24 106 0
-5 -24 -106 0
6 24 124 0
-6 -24 -124 0
7 24 142 0
-7 -24 -142 0
8 24 160 0
-8 -24 -160 0
9 24 178 0
-9 -24 -178 0
10 24 196 0
-10 -24 -196 0
11 24 214 0
-11 -24 -214 0
1 25 35 0
-1 -25 -35 0
2 25 53 0
-2 -25 -53 0
3 25 71 0
-3 -25 -71 0
4 25 89 0
-4 -25 -89 0
5 25 107 0
-5 -25 -107 0
6 25 125 0
-6 -25 -125 0
7 25 143 0
-7 -25 -143 0
8 25 161 0
-8 -25 -161 0
9 25 179 0
-9 -25 -179 0
10 25 197 0
-10 -25 -197 0
11 25 215 0
-11 -25 -215 0
1 26 36 0
-1 -26 -36 0
2 26 54 0
-2 -26 -54 0
3 26 72 0
-3 -26 -72 0
4 26 90 0
-4 -26 -90 0
5 26 108 0
-5 -26 -108 0
6 26 126 0
-6 -26 -126 0
7 26 144 0
-7 -26 -144 0
8 26 162 0
-8 -26 -162 0
9 26 180 0
-9 -26 -180 0
10 26 198 0
-10 -26 -198 0
11 26 216 0
-11 -26 -216 0
1 27 37 0
-1 -27 -37 0
2 27 55 0
-2 -27 -55 0
3 27 73 0
-3 -27 -73 0
4 27 91 0
-4 -27 -91 0
5 27 109 0
-5 -27 -109 0
6 27 127 0
-6 -27 -127 0
7 27 145 0
-7 -27 -145 0
8 27 163 0
-8 -27 -163 0
9 27 181 0
-9 -27 -181 0
10 27 199 0
-10 -27 -199 0
11 27 217 0
-11 -27 -217 0
1 28 38 0
-1 -28 -38 0
2 28 56 0
-2 -28 -56 0
3 28 74 0
-3 -28 -74 0
4 28 92 0
-4 -28 -92 0
5 28 110 0
-5 -28 -110 0
6 28 128 0
-6 -28 -128 0
7 28 146 0
-7 -28 -146 0
8 28 164 0
-8 -28 -164 0
9 28 182 0
-9 -28 -182 0
10 28 200 0
-10 -28 -200 0
11 28 218 0
-11 -28 -218 0
1 29 39 0
-1 -29 -39 0
2 29 57 0
-2 -29 -57 0
3 29 75 0
-3 -29 -75 0
4 29 93 0
-4 -29 -93 0
5 29 111 0
-5 -29 -111 0
6 29 129 0
-6 -29 -129 0
7 29 147 0
-7 -29 -147 0
8 29 165 0
-8 -29 -165 0
9 29 183 0
-9 -29 -183 0
10 29 201 0
-10 -29 -201 0
11 29 219 0
-11 -29 -219 0
1 30 40 0
-1 -30 -40 0
2 30 58 0
-2 -30 -58 0
3 30 76 0
-3 -30 -76 0
4 30 94 0
-4 -30 -94 0
5 30 112 0
-5 -30 -112 0
6 30 130 0
-6 -30 -130 0
7 30 148 0
-7 -30 -148 0
8 30 166 0
-8 -30 -166 0
9 30 184 0
-9 -30 -184 0
10 30 202 0
-10 -30 -202 0
1 31 41 0
-1 -31 -41 0
2 31 59 0
-2 -31 -59 0
3 31 77 0
-3 -31 -77 0
4 31 95 0
-4 -31 -95 0
5 31 113 0
-5 -31 -113 0
6 31 131 0
-6 -31 -131 0
7 31 149 0
-7 -31 -149 0
8 31 167 0
-8 -31 -167 0
9 31 185 0
-9 -31 -185 0
10 31 203 0
-10 -31 -203 0
1 32 42 0
-1 -32 -42 0
2 32 60 0
-2 -32 -60 0
3 32 78 0
-3 -32 -78 0
4 32 96 0
-4 -32 -96 0
5 32 114 0
-5 -32 -114 0
6 32 132 0
-6 -32 -132 0
7 32 150 0
-7 -32 -150 0
8 32 168 0
-8 -32 -168 0
9 32 186 0
-9 -32 -186 0
10 32 204 0
-10 -32 -204 0
1 33 43 0
-1 -33 -43 0
2 33 61 0
-2 -33 -61 0
3 33 79 0
-3 -33 -79 0
4 33 97 0
-4 -33 -97 0
5 33 115 0
-5 -33 -115 0
6 33 133 0
-6 -33 -133 0
7 33 151 0
-7 -33 -151 0
8 33 169 0
-8 -33 -169 0
9 33 187 0
-9 -33 -187 0
10 33 205 0
-10 -33 -205 0
1 34 44 0
-1 -34 -44 0
2 34 62 0
-2 -34 -62 0
3 34 80 0
-3 -34 -80 0
4 34 98 0
-4 -34 -98 0
5 34 116 0
-5 -34 -116 0
6 34 134 0
-6 -34 -134 0
7 34 152 0
-7 -34 -152 0
8 34 170 0
-8 -34 -170 0
9 34 188 0
-9 -34 -188 0
10 34 206 0
-10 -34 -206 0
1 35 45 0
-1 -35 -45 0
2 35 63 0
-2 -35 -63 0
3 35 81 0
-3 -35 -81 0
4 35 99 0
-4 -35 -99 0
5 35 117 0
-5 -35 -117 0
6 35 135 0
-6 -35 -135 0
7 35 153 0
-7 -35 -153 0
8 35 171 0
-8 -35 -171 0
9 35 189 0
-9 -35 -189 0
10 35 207 0
-10 -35 -207 0
1 36 46 0
-1 -36 -46 0
2 36 64 0
-2 -36 -64 0
3 36 82 0
-3 -36 -82 0
4 36 100 0
-4 -36 -100 0
5 36 118 0
-5 -36 -118 0
6 36 136 0
-6 -36 -136 0
7 36 154 0
-7 -36 -154 0
8 36 172 0
-8 -36 -172 0
9 36 190 0
-9 -36 -190 0
10 36 208 0
-10 -36 -208 0
1 37 47 0
-1 -37 -47 0
2 37 65 0
-2 -37 -65 0
3 37 83 0
-3 -37 -83 0
4 37 101 0
-4 -37 -101 0
5 37 119 0
-5 -37 -119 0
6 37 137 0
-6 -37 -137 0
7 37 155 0
-7 -37 -155 0
8 37 173 0
-8 -37 -173 0
9 37 191 0
-9 -37 -191 0
10 37 209 0
-10 -37 -209 0
1 38 48 0
-1 -38 -48 0
2 38 66 0
-2 -38 -66 0
3 38 84 0
-3 -38 -84 0
4 38 102 0
-4 -38 -102 0
5 38 120 0
-5 -38 -120 0
6 38 138 0
-6 -38 -138 0
7 38 156 0
-7 -38 -156 0
8 38 174 0
-8 -38 -174 0
9 38 192 0
-9 -38 -192 0
10 38 210 0
-10 -38 -210 0
1 39 49 0
-1 -39 -49 0
2 39 67 0
-2 -39 -67 0
3 39 85 0
-3 -39 -85 0
4 39 103 0
-4 -39 -103 0
5 39 121 0
-5 -39 -121 0
6 39 139 0
-6 -39 -139 0
7 39 157 0
-7 -39 -157 0
8 39 175 0
-8 -39 -175 0
9 39 193 0
-9 -39 -193 0
10 39 211 0
-10 -39 -211 0
1 40 50 0
-1 -40 -50 0
2 40 68 0
-2 -40 -68 0
3 40 86 0
-3 -40 -86 0
4 40 104 0
-4 -40 -104 0
5 40 122 0
-5 -40 -122 0
6 40 140 0
-6 -40 -140 0
7 40 158 0
-7 -40 -158 0
8 40 176 0
-8 -40 -176 0
9 40 194 0
-9 -40 -194 0
10 40 212 0
-10 -40 -212 0
1 41 51 0
-1 -41 -51 0
2 41 69 0
-2 -41 -69 0
3 41 87 0
-3 -41 -87 0
4 41 105 0
-4 -41 -105 0
5 41 123 0
-5 -41 -123 0
6 41 141 0
-6 -41 -141 0
7 41 159 0
-7 -41 -159 0
8 41 177 0
-8 -41 -177 0
9 41 195 0
-9 -41 -195 0
10 41 213 0
-10 -41 -213 0
1 42 52 0
-1 -42 -52 0
2 42 70 0
-2 -42 -70 0
3 42 88 0
-3 -42 -88 0
4 42 106 0
-4 -42 -106 0
5 42 124 0
-5 -42 -124 0
6 42 142 0
-6 -42 -142 0
7 42 160 0
-7 -42 -160 0
8 42 178 0
-8 -42 -178 0
9 42 196 0
-9 -42 -196 0
10 42 214 0
-10 -42 -214 0
1 43 53 0
-1 -43 -53 0
2 43 71 0
-2 -43 -71 0
3 43 89 0
-3 -43 -89 0
4 43 107 0
-4 -43 -107 0
5 43 125 0
-5 -43 -125 0
6 43 143 0
-6 -43 -143 0
7 43 161 0
-7 -43 -161 0
8 43 179 0
-8 -43 -179 0
9 43 197 0
-9 -43 -197 0
10 43 215 0
-10 -43 -215 0
1 44 54 0
-1 -44 -54 0
2 44 72 0
-2 -44 -72 0
3 44 90 0
-3 -44 -90 0
4 44 108 0
-4 -44 -108 0
5 44 126 0
-5 -44 -126 0
6 44 144 0
-6 -44 -144 0
7 44 162 0
-7 -44 -162 0
8 44 180 0
-8 -44 -180 0
9 44 198 0
-9 -44 -198 0
10 44 216 0
-10 -44 -216 0
1 45 55 0
-1 -45 -55 0
2 45 73 0
-2 -45 -73 0
3 45 91 0
-3 -45 -91 0
4 45 109 0
-4 -45 -109 0
5 45 127 0
-5 -45 -127 0
6 45 145 0
-6 -45 -145 0
7 45 163 0
-7 -45 -163 0
8 45 181 0
-8 -45 -181 0
9 45 199 0
-9 -45 -199 0
10 45 217 0
-10 -45 -217 0
1 46 56 0
-1 -46 -56 0
2 46 74 0
-2 -46 -74 0
3 46 92 0
-3 -46 -92 0
4 46 110 0
-4 -46 -110 0
5 46 128 0
-5 -46 -128 0
6 46 146 0
-6 -46 -146 0
7 46 164 0
-7 -46 -164 0
8 46 182 0
-8 -46 -182 0
9 46 200 0
-9 -46 -200 0
10 46 218 0
-10 -46 -218 0
1 47 57 0
-1 -47 -57 0
2 47 75 0
-2 -47 -75 0
3 47 93 0
-3 -47 -93 0
4 47 111 0
-4 -47 -111 0
5 47 129 0
-5 -47 -129 0
6 47 147 0
-6 -47 -147 0
7 47 165 0
-7 -47 -165 0
8 47 183 0
-8 -47 -183 0
9 47 201 0
-9 -47 -201 0
10 47 219 0
-10 -47 -219 0
1 48 58 0
-1 -48 -58 0
2 48 76 0
-2 -48 -76 0
3 48 94 0
-3 -48 -94 0
4 48 112 0
-4 -48 -112 0
5 48 130 0
-5 -48 -130 0
6 48 148 0
-6 -48 -148 0
7 48 166 0
-7 -48 -166 0
8 48 184 0
-8 -48 -184 0
9 48 202 0
-9 -48 -202 0
1 49 59 0
-1 -49 -59 0
2 49 77 0
-2 -49 -77 0
3 49 95 0
-3 -49 -95 0
4 49 113 0
-4 -49 -113 0
5 49 131 0
-5 -49 -131 0
6 49 149 0
-6 -49 -149 0
7 49 167 0
-7 -49 -167 0
8 49 185 0
-8 -49 -185 0
9 49 203 0
-9 -49 -203 0
1 50 60 0
-1 -50 -60 0
2 50 78 0
-2 -50 -78 0
3 50 96 0
-3 -50 -96 0
4 50 114 0
-4 -50 -114 0
5 50 132 0
-5 -50 -132 0
6 50 150 0
-6 -50 -150 0
7 50 168 0
-7 -50 -168 0
8 50 186 0
-8 -50 -186 0
9 50 204 0
-9 -50 -204 0
1 51 61 0
-1 -51 -61 0
2 51 79 0
-2 -51 -79 0
3 51 97 0
-3 -51 -97 0
4 51 115 0
-4 -51 -115 0
5 51 133 0
-5 -51 -133 0
6 51 151 0
-6 -51 -151 0
7 51 169 0
-7 -51 -169 0
8 51 187 0
-8 -51 -187 0
9 51 205 0
-9 -51 -205 0
1 52 62 0
-1 -52 -62 0
2 52 80 0
-2 -52 -80 0
3 52 98 0
-3 -52 -98 0
4 52 116 0
-4 -52 -116 0
5 52 134 0
-5 -52 -134 0
6 52 152 0
-6 -52 -152 0
7 52 170 0
-7 -52 -170 0
8 52 188 0
-8 -52 -188 0
9 52 206 0
-9 -52 -206 0
1 53 63 0
-1 -53 -63 0
2 53 81 0
-2 -53 -81 0
3 53 99 0
-3 -53 -99 0
4 53 117 0
-4 -53 -117 0
5 53 135 0
-5 -53 -135 0
6 53 153 0
-6 -53 -153 0
7 53 171 0
-7 -53 -171 0
8 53 189 0
-8 -53 -189 0
9 53 207 0
-9 -53 -207 0
1 54 64 0
-1 -54 -64 0
2 54 82 0
-2 -54 -82 0
3 54 100 0
-3 -54 -100 0
4 54 118 0
-4 -54 -118 0
5 54 136 0
-5 -54 -136 0
6 54 154 0
-6 -54 -154 0
7 54 172 0
-7 -54 -172 0
8 54 190 0
-8 -54 -190 0
9 54 208 0
-9 -54 -208 0
1 55 65 0
-1 -55 -65 0
2 55 83 0
-2 -55 -83 0
3 55 101 0
-3 -55 -101 0
4 55 119 0
-4 -55 -119 0
5 55 137 0
-5 -55 -137 0
6 55 155 0
-6 -55 -155 0
7 55 173 0
-7 -55 -173 0
8 55 191 0
-8 -55 -191 0
9 55 209 0
-9 -55 -209 0
1 56 66 0
-1 -56 -66 0
2 56 84 0
-2 -56 -84 0
3 56 102 0
-3 -56 -102 0
4 56 120 0
-4 -56 -120 0
5 56 138 0
-5 -56 -138 0
6 56 156 0
-6 -56 -156 0
7 56 174 0
-7 -56 -174 0
8 56 192 0
-8 -56 -192 0
9 56 210 0
-9 -56 -210 0
1 57 67 0
-1 -57 -67 0
2 57 85 0
-2 -57 -85 0
3 57 103 0
-3 -57 -103 0
4 57 121 0
-4 -57 -121 0
5 57 139 0
-5 -57 -139 0
6 57 157 0
-6 -57 -157 0
7 57 175 0
-7 -57 -175 0
8 57 193 0
-8 -57 -193 0
9 57 211 0
-9 -57 -211 0
1 58 68 0
-1 -58 -68 0
2 58 86 0
-2 -58 -86 0
3 58 104 0
-3 -58 -104 0
4 58 122 0
-4 -58 -122 0
5 58 140 0
-5 -58 -140 0
6 58 158 0
-6 -58 -158 0
7 58 176 0
-7 -58 -176 0
8 58 194 0
-8 -58 -194 0
9 58 212 0
-9 -58 -212 0
1 59 69 0
-1 -59 -69 0
2 59 87 0
-2 -59 -87 0
3 59 105 0
-3 -59 -105 0
4 59 123 0
-4 -59 -123 0
5 59 141 0
-5 -59 -141 0
6 59 159 0
-6 -59 -159 0
7 59 177 0
-7 -59 -177 0
8 59 195 0
-8 -59 -195 0
9 59 213 0
-9 -59 -213 0
1 60 70 0
-1 -60 -70 0
2 60 88 0
-2 -60 -88 0
3 60 106 0
-3 -60 -106 0
4 60 124 0
-4 -60 -124 0
5 60 142 0
-5 -60 -142 0
6 60 160 0
-6 -60 -160 0
7 60 178 0
-7 -60 -178 0
8 60 196 0
-8 -60 -196 0
9 60 214 0
-9 -60 -214 0
1 61 71 0
-1 -61 -71 0
2 61 89 0
-2 -61 -89 0
3 61 107 0
-3 -61 -107 0
4 61 125 0
-4 -61 -125 0
5 61 143 0
-5 -61 -143 0
6 61 161 0
-6 -61 -161 0
7 61 179 0
-7 -61 -179 0
8 61 197 0
-8 -61 -197 0
9 61 215 0
-9 -61 -215 0
1 62 72 0
-1 -62 -72 0
2 62 90 0
-2 -62 -90 0
3 62 108 0
-3 -62 -108 0
4 62 126 0
-4 -62 -126 0
5 62 144 0
-5 -62 -144 0
6 62 162 0
-6 -62 -162 0
7 62 180 0
-7 -62 -180 0
8 62 198 0
-8 -62 -198 0
9 62 216 0
-9 -62 -216 0
1 63 73 0
-1 -63 -73 0
2 63 91 0
-2 -63 -91 0
3 63 109 0
-3 -63 -109 0
4 63 127 0
-4 -63 -127 0
5 63 145 0
-5 -63 -145 0
6 63 163 0
-6 -63 -163 0
7 63 181 0
-7 -63 -181 0
8 63 199 0
-8 -63 -199 0
9 63 217 0
-9 -63 -217 0
1 64 74 0
-1 -64 -74 0
2 64 92 0
-2 -64 -92 0
3 64 110 0
-3 -64 -110 0
4 64 128 0
-4 -64 -128 0
5 64 146 0
-5 -64 -146 0
6 64 164 0
-6 -64 -164 0
7 64 182 0
-7 -64 -182 0
8 64 200 0
-8 -64 -200 0
9 64 218 0
-9 -64 -218 0
1 65 75 0
-1 -65 -75 0
2 65 93 0
-2 -65 -93 0
3 65 111 0
-3 -65 -111 0
4 65 129 0
-4 -65 -129 0
5 65 147 0
-5 -65 -147 0
6 65 165 0
-6 -65 -165 0
7 65 183 0
-7 -65 -183 0
8 65 201 0
-8 -65 -201 0
9 65 219 0
-9 -65 -219 0
1 66 76 0
-1 -66 -76 0
2 66 94 0
-2 -66 -94 0
3 66 112 0
-3 -66 -112 0
4 66 130 0
-4 -66 -130 0
5 66 148 0
-5 -66 -148 0
6 66 166 0
-6 -66 -166 0
7 66 184 0
-7 -66 -184 0
8 66 202 0
-8 -66 -202 0
1 67 77 0
-1 -67 -77 0
2 67 95 0
-2 -67 -95 0
3 67 113 0
-3 -67 -113 0
4 67 131 0
-4 -67 -131 0
5 67 149 0
-5 -67 -149 0
6 67 167 0
-6 -67 -167 0
7 67 185 0
-7 -67 -185 0
8 67 203 0
-8 -67 -203 0
1 68 78 0
-1 -68 -78 0
2 68 96 0
-2 -68 -96 0
3 68 114 0
-3 -68 -114 0
4 68 132 0
-4 -68 -132 0
5 68 150 0
-5 -68 -150 0
6 68 168 0
-6 -68 -168 0
7 68 186 0
-7 -68 -186 0
8 68 204 0
-8 -68 -204 0
1 69 79 0
-1 -69 -79 0
2 69 97 0
-2 -69 -97 0
3 69 115 0
-3 -69 -115 0
4 69 133 0
-4 -69 -133 0
5 69 151 0
-5 -69 -151 0
6 69 169 0
-6 -69 -169 0
7 69 187 0
-7 -69 -187 0
8 69 205 0
-8 -69 -205 0
1 70 80 0
-1 -70 -80 0
2 70 98 0
-2 -70 -98 0
3 70 116 0
-3 -70 -116 0
4 70 134 0
-4 -70 -134 0
5 70 152 0
-5 -70 -152 0
6 70 170 0
-6 -70 -170 0
7 70 188 0
-7 -70 -188 0
8 70 206 0
-8 -70 -206 0
1 71 81 0
-1 -71 -81 0
2 71 99 0
-2 -71 -99 0
3 71 117 0
-3 -71 -117 0
4 71 135 0
-4 -71 -135 0
5 71 153 0
-5 -71 -153 0
6 71 171 0
-6 -71 -171 0
7 71 189 0
-7 -71 -189 0
8 71 207 0
-8 -71 -207 0
1 72 82 0
-1 -72 -82 0
2 72 100 0
-2 -72 -100 0
3 72 118 0
-3 -72 -118 0
4 72 136 0
-4 -72 -136 0
5 72 154 0
-5 -72 -154 0
6 72 172 0
-6 -72 -172 0
7 72 190 0
-7 -72 -190 0
8 72 208 0
-8 -72 -208 0
1 73 83 0
-1 -73 -83 0
2 73 101 0
-2 -73 -101 0
3 73 119 0
-3 -73 -119 0
4 73 137 0
-4 -73 -137 0
5 73 155 0
-5 -73 -155 0
6 73 173 0
-6 -73 -173 0
7 73 191 0
-7 -73 -191 0
8 73 209 0
-8 -73 -209 0
1 74 84 0
-1 -74 -84 0
2 74 102 0
-2 -74 -102 0
3 74 120 0
-3 -74 -120 0
4 74 138 0
-4 -74 -138 0
5 74 156 0
-5 -74 -156 0
6 74 174 0
-6 -74 -174 0
7 74 192 0
-7 -74 -192 0
8 74 210 0
-8 -74 -210 0
1 75 85 0
-1 -75 -85 0
2 75 103 0
-2 -75 -103 0
3 75 121 0
-3 -75 -121 0
4 75 139 0
-4 -75 -139 0
5 75 157 0
-5 -75 -157 0
6 75 175 0
-6 -75 -175 0
7 75 193 0
-7 -75 -193 0
8 75 211 0
-8 -75 -211 0
1 76 86 0
-1 -76 -86 0
2 76 104 0
-2 -76 -104 0
3 76 122 0
-3 -76 -122 0
4 76 140 0
-4 -76 -140 0
5 76 158 0
-5 -76 -158 0
6 76 176 0
-6 -76 -176 0
7 76 194 0
-7 -76 -194 0
8 76 212 0
-8 -76 -212 0
1 77 87 0
-1 -77 -87 0
2 77 105 0
-2 -77 -105 0
3 77 123 0
-3 -77 -123 0
4 77 141 0
-4 -77 -141 0
5 77 159 0
-5 -77 -159 0
6 77 177 0
-6 -77 -177 0
7 77 195 0
-7 -77 -195 0
8 77 213 0
-8 -77 -213 0
1 78 88 0
-1 -78 -88 0
2 78 106 0
-2 -78 -106 0
3 78 124 0
-3 -78 -124 0
4 78 142 0
-4 -78 -142 0
5 78 160 0
-5 -78 -160 0
6 78 178 0
-6 -78 -178 0
7 78 196 0
-7 -78 -196 0
8 78 214 0
-8 -78 -214 0
1 79 89 0
-1 -79 -89 0
2 79 107 0
-2 -79 -107 0
3 79 125 0
-3 -79 -125 0
4 79 143 0
-4 -79 -143 0
5 79 161 0
-5 -79 -161 0
6 79 179 0
-6 -79 -179 0
7 79 197 0
-7 -79 -197 0
8 79 215 0
-8 -79 -215 0
1 80 90 0
-1 -80 -90 0
2 80 108 0
-2 -80 -108 0
3 80 126 0
-3 -80 -126 0
4 80 144 0
-4 -80 -144 0
5 80 162 0
-5 -80 -162 0
6 80 180 0
-6 -80 -180 0
7 80 198 0
-7 -80 -198 0
8 80 216 0
-8 -80 -216 0
1 81 91 0
-1 -81 -91 0
2 81 109 0
-2 -81 -109 0
3 81 127 0
-3 -81 -127 0
4 81 145 0
-4 -81 -145 0
5 81 163 0
-5 -81 -163 0
6 81 181 0
-6 -81 -181 0
7 81 199 0
-7 -81 -199 0
8 81 217 0
-8 -81 -217 0
1 82 92 0
-1 -82 -92 0
2 82 110 0
-2 -82 -110 0
3 82 128 0
-3 -82 -128 0
4 82 146 0
-4 -82 -146 0
5 82 164 0
-5 -82 -164 0
6 82 182 0
-6 -82 -182 0
7 82 200 0
-7 -82 -200 0
8 82 218 0
-8 -82 -218 0
1 83 93 0
-1 -83 -93 0
2 83 111 0
-2 -83 -111 0
3 83 129 0
-3 -83 -129 0
4 83 147 0
-4 -83 -147 0
5 83 165 0
-5 -83 -165 0
6 83 183 0
-6 -83 -183 0
7 83 201 0
-7 -83 -201 0
8 83 219 0
-8 -83 -219 0
1 84 94 0
-1 -84 -94 0
2 84 112 0
-2 -84 -112 0
3 84 130 0
-3 -84 -130 0
4 84 148 0
-4 -84 -148 0
5 84 166 0
-5 -84 -166 0
6 84 184 0
-6 -84 -184 0
7 84 202 0
-7 -84 -202 0
1 85 95 0
-1 -85 -95 0
2 85 113 0
-2 -85 -113 0
3 85 131 0
-3 -85 -131 0
4 85 149 0
-4 -85 -149 0
5 85 167 0
-5 -85 -167 0
6 85 185 0
-6 -85 -185 0
7 85 203 0
-7 -85 -203 0
1 86 96 0
-1 -86 -96 0
2 86 114 0
-2 -86 -114 0
3 86 132 0
-3 -86 -132 0
4 86 150 0
-4 -86 -150 0
5 86 168 0
-5 -86 -168 0
6 86 186 0
-6 -86 -186 0
7 86 204 0
-7 -86 -204 0
1 87 97 0
-1 -87 -97 0
2 87 115 0
-2 -87 -115 0
3 87 133 0
-3 -87 -133 0
4 87 151 0
-4 -87 -151 0
5 87 169 0
-5 -87 -169 0
6 87 187 0
-6 -87 -187 0
7 87 205 0
-7 -87 -205 0
1 88 98 0
-1 -88 -98 0
2 88 116 0
-2 -88 -116 0
3 88 134 0
-3 -88 -134 0
4 88 152 0
-4 -88 -152 0
5 88 170 0
-5 -88 -170 0
6 88 188 0
-6 -88 -188 0
7 88 206 0
-7 -88 -206 0
1 89 99 0
-1 -89 -99 0
2 89 117 0
-2 -89 -117 0
3 89 135 0
-3 -89 -135 0
4 89 153 0
-4 -89 -153 0
5 89 171 0
-5 -89 -171 0
6 89 189 0
-6 -89 -189 0
7 89 207 0
-7 -89 -207 0
1 90 100 0
-1 -90 -100 0
2 90 118 0
-2 -90 -118 0
3 90 136 0
-3 -90 -136 0
4 90 154 0
-4 -90 -154 0
5 90 172 0
-5 -90 -172 0
6 90 190 0
-6 -90 -190 0
7 90 208 0
-7 -90 -208 0
1 91 101 0
-1 -91 -101 0
2 91 119 0
-2 -91 -119 0
3 91 137 0
-3 -91 -137 0
4 91 155 0
-4 -91 -155 0
5 91 173 0
-5 -91 -173 0
6 91 191 0
-6 -91 -191 0
7 91 209 0
-7 -91 -209 0
1 92 102 0
-1 -92 -102 0
2 92 120 0
-2 -92 -120 0
3 92 138 0
-3 -92 -138 0
4 92 156 0
-4 -92 -156 0
5 92 174 0
-5 -92 -174 0
6 92 192 0
-6 -92 -192 0
7 92 210 0
-7 -92 -210 0
1 93 103 0
-1 -93 -103 0
2 93 121 0
-2 -93 -121 0
3 93 139 0
-3 -93 -139 0
4 93 157 0
-4 -93 -157 0
5 93 175 0
-5 -93 -175 0
6 93 193 0
-6 -93 -193 0
7 93 211 0
-7 -93 -211 0
1 94 104 0
-1 -94 -104 0
2 94 122 0
-2 -94 -122 0
3 94 140 0
-3 -94 -140 0
4 94 158 0
-4 -94 -158 0
5 94 176 0
-5 -94 -176 0
6 94 194 0
-6 -94 -194 0
7 94 212 0
-7 -94 -212 0
1 95 105 0
-1 -95 -105 0
2 95 123 0
-2 -95 -123 0
3 95 141 0
-3 -95 -141 0
4 95 159 0
-4 -95 -159 0
5 95 177 0
-5 -95 -177 0
6 95 195 0
-6 -95 -195 0
7 95 213 0
-7 -95 -213 0
1 96 106 0
-1 -96 -106 0
2 96 124 0
-2 -96 -124 0
3 96 142 0
-3 -96 -142 0
4 96 160 0
-4 -96 -160 0
5 96 178 0
-5 -96 -178 0
6 96 196 0
-6 -96 -196 0
7 96 214 0
-7 -96 -214 0
1 97 107 0
-1 -97 -107 0
2 97 125 0
-2 -97 -125 0
3 97 143 0
-3 -97 -143 0
4 97 161 0
-4 -97 -161 0
5 97 179 0
-5 -97 -179 0
6 97 197 0
-6 -97 -197 0
7 97 215 0
-7 -97 -215 0
1 98 108 0
-1 -98 -108 0
2 98 126 0
-2 -98 -126 0
3 98 144 0
-3 -98 -144 0
4 98 162 0
-4 -98 -162 0
5 98 180 0
-5 -98 -180 0
6 98 198 0
-6 -98 -198 0
7 98 216 0
-7 -98 -216 0
1 99 109 0
-1 -99 -109 0
2 99 127 0
-2 -99 -127 0
3 99 145 0
-3 -99 -145 0
4 99 163 0
-4 -99 -163 0
5 99 181 0
-5 -99 -181 0
6 99 199 0
-6 -99 -199 0
7 99 217 0
-7 -99 -217 0
1 100 110 0
-1 -100 -110 0
2 100 128 0
-2 -100 -128 0
3 100 146 0
-3 -100 -146 0
4 100 164 0
-4 -100 -164 0
5 100 182 0
-5 -100 -182 0
6 100 200 0
-6 -100 -200 0
7 100 218 0
-7 -100 -218 0
1 101 111 0
-1 -101 -111 0
2 101 129 0
-2 -101 -129 0
3 101 147 0
-3 -101 -147 0
4 101 165 0
-4 -101 -165 0
5 101 183 0
-5 -101 -183 0
6 101 201 0
-6 -101 -201 0
7 101 219 0
-7 -101 -219 0
1 102 112 0
-1 -102 -112 0
2 102 130 0
-2 -102 -130 0
3 102 148 0
-3 -102 -148 0
4 102 166 0
-4 -102 -166 0
5 102 184 0
-5 -102 -184 0
6 102 202 0
-6 -102 -202 0
1 103 113 0
-1 -103 -113 0
2 103 131 0
-2 -103 -131 0
3 103 149 0
-3 -103 -149 0
4 103 167 0
-4 -103 -167 0
5 103 185 0
-5 -103 -185 0
6 103 203 0
-6 -103 -203 0
1 104 114 0
-1 -104 -114 0
2 104 132 0
-2 -104 -132 0
3 104 150 0
-3 -104 -150 0
4 104 168 0
-4 -104 -168 0
5 104 186 0
-5 -104 -186 0
6 104 204 0
-6 -104 -204 0
1 105 115 0
-1 -105 -115 0
2 105 133 0
-2 -105 -133 0
3 105 151 0
-3 -105 -151 0
4 105 169 0
-4 -105 -169 0
5 105 187 0
-5 -105 -187 0
6 105 205 0
-6 -105 -205 0
1 106 116 0
-1 -106 -116 0
2 106 134 0
-2 -106 -134 0
3 106 152 0
-3 -106 -152 0
4 106 170 0
-4 -106 -170 0
5 106 188 0
-5 -106 -188 0
6 106 206 0
-6 -106 -206 0
1 107 117 0
-1 -107 -117 0
2 107 135 0
-2 -107 -135 0
3 107 153 0
-3 -107 -153 0
4 107 171 0
-4 -107 -171 0
5 107 189 0
-5 -107 -189 0
6 107 207 0
-6 -107 -207 0
1 108 118 0
-1 -108 -118 0
2 108 136 0
-2 -108 -136 0
3 108 154 0
-3 -108 -154 0
4 108 172 0
-4 -108 -172 0
5 108 190 0
-5 -108 -190 0
6 108 208 0
-6 -108 -208 0
1 109 119 0
-1 -109 -119 0
2 109 137 0
-2 -109 -137 0
3 109 155 0
-3 -109 -155 0
4 109 173 0
-4 -109 -173 0
5 109 191 0
-5 -109 -191 0
6 109 209 0
-6 -109 -209 0
1 110 120 0
-1 -110 -120 0
2 110 138 0
-2 -110 -138 0
3 110 156 0
-3 -110 -156 0
4 110 174 0
-4 -110 -174 0
5 110 192 0
-5 -110 -192 0
6 110 210 0
-6 -110 -210 0
1 111 121 0
-1 -111 -121 0
2 111 139 0
-2 -111 -139 0
3 111 157 0
-3 -111 -157 0
4 111 175 0
-4 -111 -175 0
5 111 193 0
-5 -111 -193 0
6 111 211 0
-6 -111 -211 0
1 112 122 0
-1 -112 -122 0
2 112 140 0
-2 -112 -140 0
3 112 158 0
-3 -112 -158 0
4 112 176 0
-4 -112 -176 0
5 112 194 0
-5 -112 -194 0
6 112 212 0
-6 -112 -212 0
1 113 123 0
-1 -113 -123 0
2 113 141 0
-2 -113 -141 0
3 113 159 0
-3 -113 -159 0
4 113 177 0
-4 -113 -177 0
5 113 195 0
-5 -113 -195 0
6 113 213 0
-6 -113 -213 0
1 114 124 0
-1 -114 -124 0
2 114 142 0
-2 -114 -142 0
3 114 160 0
-3 -114 -160 0
4 114 178 0
-4 -114 -178 0
5 114 196 0
-5 -114 -196 0
6 114 214 0
-6 -114 -214 0
1 115 125 0
-1 -115 -125 0
2 115 143 0
-2 -115 -143 0
3 115 161 0
-3 -115 -161 0
4 115 179 0
-4 -115 -179 0
5 115 197 0
-5 -115 -197 0
6 115 215 0
-6 -115 -215 0
1 116 126 0
-1 -116 -126 0
2 116 144 0
-2 -116 -144 0
3 116 162 0
-3 -116 -162 0
4 116 180 0
-4 -116 -180 0
5 116 198 0
-5 -116 -198 0
6 116 216 0
-6 -116 -216 0
1 117 127 0
-1 -117 -127 0
2 117 145 0
-2 -117 -145 0
3 117 163 0
-3 -117 -163 0
4 117 181 0
-4 -117 -181 0
5 117 199 0
-5 -117 -199 0
6 117 217 0
-6 -117 -217 0
1 118 128 0
-1 -118 -128 0
2 118 146 0
-2 -118 -146 0
3 118 164 0
-3 -118 -164 0
4 118 182 0
-4 -118 -182 0
5 118 200 0
-5 -118 -200 0
6 118 218 0
-6 -118 -218 0
1 119 129 0
-1 -119 -129 0
2 119 147 0
-2 -119 -147 0
3 119 165 0
-3 -119 -165 0
4 119 183 0
-4 -119 -183 0
5 119 201 0
-5 -119 -201 0
6 119 219 0
-6 -119 -219 0
1 120 130 0
-1 -120 -130 0
2 120 148 0
-2 -120 -148 0
3 120 166 0
-3 -120 -166 0
4 120 184 0
-4 -120 -184 0
5 120 202 0
-5 -120 -202 0
1 121 131 0
-1 -121 -131 0
2 121 149 0
-2 -121 -149 0
3 121 167 0
-3 -121 -167 0
4 121 185 0
-4 -121 -185 0
5 121 203 0
-5 -121 -203 0
1 122 132 0
-1 -122 -132 0
2 122 150 0
-2 -122 -150 0
3 122 168 0
-3 -122 -168 0
4 122 186 0
-4 -122 -186 0
5 122 204 0
-5 -122 -204 0
1 123 133 0
-1 -123 -133 0
2 123 151 0
-2 -123 -151 0
3 123 169 0
-3 -123 -169 0
4 123 187 0
-4 -123 -187 0
5 123 205 0
-5 -123 -205 0
1 124 134 0
-1 -124 -134 0
2 124 152 0
-2 -124 -152 0
3 124 170 0
-3 -124 -170 0
4 124 188 0
-4 -124 -188 0
5 124 206 0
-5 -124 -206 0
1 125 135 0
-1 -125 -135 0
2 125 153 0
-2 -125 -153 0
3 125 171 0
-3 -125 -171 0
4 125 189 0
-4 -125 -189 0
5 125 207 0
-5 -125 -207 0
1 126 136 0
-1 -126 -136 0
2 126 154 0
-2 -126 -154 0
3 126 172 0
-3 -126 -172 0
4 126 190 0
-4 -126 -190 0
5 126 208 0
-5 -126 -208 0
1 127 137 0
-1 -127 -137 0
2 127 155 0
-2 -127 -155 0
3 127 173 0
-3 -127 -173 0
4 127 191 0
-4 -127 -191 0
5 127 209 0
-5 -127 -209 0
1 128 138 0
-1 -128 -138 0
2 128 156 0
-2 -128 -156 0
3 128 174 0
-3 -128 -174 0
4 128 192 0
-4 -128 -192 0
5 128 210 0
-5 -128 -210 0
1 129 139 0
-1 -129 -139 0
2 129 157 0
-2 -129 -157 0
3 129 175 0
-3 -129 -175 0
4 129 193 0
-4 -129 -193 0
5 129 211 0
-5 -129 -211 0
1 130 140 0
-1 -130 -140 0
2 130 158 0
-2 -130 -158 0
3 130 176 0
-3 -130 -176 0
4 130 194 0
-4 -130 -194 0
5 130 212 0
-5 -130 -212 0
1 131 141 0
-1 -131 -141 0
2 131 159 0
-2 -131 -159 0
3 131 177 0
-3 -131 -177 0
4 131 195 0
-4 -131 -195 0
5 131 213 0
-5 -131 -213 0
1 132 142 0
-1 -132 -142 0
2 132 160 0
-2 -132 -160 0
3 132 178 0
-3 -132 -178 0
4 132 196 0
-4 -132 -196 0
5 132 214 0
-5 -132 -214 0
1 133 143 0
-1 -133 -143 0
2 133 161 0
-2 -133 -161 0
3 133 179 0
-3 -133 -179 0
4 133 197 0
-4 -133 -197 0
5 133 215 0
-5 -133 -215 0
1 134 144 0
-1 -134 -144 0
2 134 162 0
-2 -134 -162 0
3 134 180 0
-3 -134 -180 0
4 134 198 0
-4 -134 -198 0
5 134 216 0
-5 -134 -216 0
1 135 145 0
-1 -135 -145 0
2 135 163 0
-2 -135 -163 0
3 135 181 0
-3 -135 -181 0
4 135 199 0
-4 -135 -199 0
5 135 217 0
-5 -135 -217 0
1 136 146 0
-1 -136 -146 0
2 136 164 0
-2 -136 -164 0
3 136 182 0
-3 -136 -182 0
4 136 200 0
-4 -136 -200 0
5 136 218 0
-5 -136 -218 0
1 137 147 0
-1 -137 -147 0
2 137 165 0
-2 -137 -165 0
3 137 183 0
-3 -137 -183 0
4 137 201 0
-4 -137 -201 0
5 137 219 0
-5 -137 -219 0
1 138 148 0
-1 -138 -148 0
2 138 166 0
-2 -138 -166 0
3 138 184 0
-3 -138 -184 0
4 138 202 0
-4 -138 -202 0
1 139 149 0
-1 -139 -149 0
2 139 167 0
-2 -139 -167 0
3 139 185 0
-3 -139 -185 0
4 139 203 0
-4 -139 -203 0
1 140 150 0
-1 -140 -150 0
2 140 168 0
-2 -140 -168 0
3 140 186 0
-3 -140 -186 0
4 140 204 0
-4 -140 -204 0
1 141 151 0
-1 -141 -151 0
2 141 169 0
-2 -141 -169 0
3 141 187 0
-3 -141 -187 0
4 141 205 0
-4 -141 -205 0
1 142 152 0
-1 -142 -152 0
2 142 170 0
-2 -142 -170 0
3 142 188 0
-3 -142 -188 0
4 142 206 0
-4 -142 -206 0
1 143 153 0
-1 -143 -153 0
2 143 171 0
-2 -143 -171 0
3 143 189 0
-3 -143 -189 0
4 143 207 0
-4 -143 -207 0
1 144 154 0
-1 -144 -154 0
2 144 172 0
-2 -144 -172 0
3 144 190 0
-3 -144 -190 0
4 144 208 0
-4 -144 -208 0
1 145 155 0
-1 -145 -155 0
2 145 173 0
-2 -145 -173 0
3 145 191 0
-3 -145 -191 0
4 145 209 0
-4 -145 -209 0
1 146 156 0
-1 -146 -156 0
2 146 174 0
-2 -146 -174 0
3 146 192 0
-3 -146 -192 0
4 146 210 0
-4 -146 -210 0
1 147 157 0
-1 -147 -157 0
2 147 175 0
-2 -147 -175 0
3 147 193 0
-3 -147 -193 0
4 147 211 0
-4 -147 -211 0
1 148 158 0
-1 -148 -158 0
2 148 176 0
-2 -148 -176 0
3 148 194 0
-3 -148 -194 0
4 148 212 0
-4 -148 -212 0
1 149 159 0
-1 -149 -159 0
2 149 177 0
-2 -149 -177 0
3 149 195 0
-3 -149 -195 0
4 149 213 0
-4 -149 -213 0
1 150 160 0
-1 -150 -160 0
2 150 178 0
-2 -150 -178 0
3 150 196 0
-3 -150 -196 0
4 150 214 0
-4 -150 -214 0
1 151 161 0
-1 -151 -161 0
2 151 179 0
-2 -151 -179 0
3 151 197 0
-3 -151 -197 0
4 151 215 0
-4 -151 -215 0
1 152 162 0
-1 -152 -162 0
2 152 180 0
-2 -152 -180 0
3 152 198 0
-3 -152 -198 0
4 152 216 0
-4 -152 -216 0
1 153 163 0
-1 -153 -163 0
2 153 181 0
-2 -153 -181 0
3 153 199 0
-3 -153 -199 0
4 153 217 0
-4 -153 -217 0
1 154 164 0
-1 -154 -164 0
2 154 182 0
-2 -154 -182 0
3 154 200 0
-3 -154 -200 0
4 154 218 0
-4 -154 -218 0
1 155 165 0
-1 -155 -165 0
2 155 183 0
-2 -155 -183 0
3 155 201 0
-3 -155 -201 0
4 155 219 0
-4 -155 -219 0
1 156 166 0
-1 -156 -166 0
2 156 184 0
-2 -156 -184 0
3 156 202 0
-3 -156 -202 0
1 157 167 0
-1 -157 -167 0
2 157 185 0
-2 -157 -185 0
3 157 203 0
-3 -157 -203 0
1 158 168 0
-1 -158 -168 0
2 158 186 0
-2 -158 -186 0
3 158 204 0
-3 -158 -204 0
1 159 169 0
-1 -159 -169 0
2 159 187 0
-2 -159 -187 0
3 159 205 0
-3 -159 -205 0
1 160 170 0
-1 -160 -170 0
2 160 188 0
-2 -160 -188 0
3 160 206 0
-3 -160 -206 0
1 161 171 0
-1 -161 -171 0
2 161 189 0
-2 -161 -189 0
3 161 207 0
-3 -161 -207 0
1 162 172 0
-1 -162 -172 0
2 162 190 0
-2 -162 -190 0
3 162 208 0
-3 -162 -208 0
1 163 173 0
-1 -163 -173 0
2 163 191 0
-2 -163 -191 0
3 163 209 0
-3 -163 -209 0
1 164 174 0
-1 -164 -174 0
2 164 192 0
-2 -164 -192 0
3 164 210 0
-3 -164 -210 0
1 165 175 0
-1 -165 -175 0
2 165 193 0
-2 -165 -193 0
3 165 211 0
-3 -165 -211 0
1 166 176 0
-1 -166 -176 0
2 166 194 0
-2 -166 -194 0
3 166 212 0
-3 -166 -212 0
1 167 177 0
-1 -167 -177 0
2 167 195 0
-2 -167 -195 0
3 167 213 0
-3 -167 -213 0
1 168 178 0
-1 -168 -178 0
2 168 196 0
-2 -168 -196 0
3 168 214 0
-3 -168 -214 0
1 169 179 0
-1 -169 -179 0
2 169 197 0
-2 -169 -197 0
3 169 215 0
-3 -169 -215 0
1 170 180 0
-1 -170 -180 0
2 170 198 0
-2 -170 -198 0
3 170 216 0
-3 -170 -216 0
1 171 181 0
-1 -171 -181 0
2 171 199 0
-2 -171 -199 0
3 171 217 0
-3 -171 -217 0
1 172 182 0
-1 -172 -182 0
2 172 200 0
-2 -172 -200 0
3 172 218 0
-3 -172 -218 0
1 173 183 0
-1 -173 -183 0
2 173 201 0
-2 -173 -201 0
3 173 219 0
-3 -173 -219 0
1 174 184 0
-1 -174 -184 0
2 174 202 0
-2 -174 -202 0
1 175 185 0
-1 -175 -185 0
2 175 203 0
-2 -175 -203 0
1 176 186 0
-1 -176 -186 0
2 176 204 0
-2 -176 -204 0
1 177 187 0
-1 -177 -187 0
2 177 205 0
-2 -177 -205 0
1 178 188 0
-1 -178 -188 0
2 178 206 0
-2 -178 -206 0
1 179 189 0
-1 -179 -189 0
2 179 207 0
-2 -179 -207 0
1 180 190 0
-1 -180 -190 0
2 180 208 0
-2 -180 -208 0
1 181 191 0
-1 -181 -191 0
2 181 209 0
-2 -181 -209 0
1 182 192 0
-1 -182 -192 0
2 182 210 0
-2 -182 -210 0
1 183 193 0
-1 -183 -193 0
2 183 211 0
-2 -183 -211 0
1 184 194 0
-1 -184 -194 0
2 184 212 0
-2 -184 -212 0
1 185 195 0
-1 -185 -195 0
2 185 213 0
-2 -185 -213 0
1 186 196 0
-1 -186 -196 0
2 186 214 0
-2 -186 -214 0
1 187 197 0
-1 -187 -197 0
2 187 215 0
-2 -187 -215 0
1 188 198 0
-1 -188 -198 0
2 188 216 0
-2 -188 -216 0
1 189 199 0
-1 -189 -199 0
2 189 217 0
-2 -189 -217 0
1 190 200 0
-1 -190 -200 0
2 190 218 0
-2 -190 -218 0
1 191 201 0
-1 -191 -201 0
2 191 219 0
-2 -191 -219 0
1 192 202 0
-1 -192 -202 0
1 193 203 0
-1 -193 -203 0
1 194 204 0
-1 -194 -204 0
1 195 205 0
-1 -195 -205 0
1 196 206 0
-1 -196 -206 0
1 197 207 0
-1 -197 -207 0
1 198 208 0
-1 -198 -208 0
1 199 209 0
-1 -199 -209 0
1 200 210 0
-1 -200 -210 0
1 201 211 0
-1 -201 -211 0
1 202 212 0
-1 -202 -212 0
1 203 213 0
-1 -203 -213 0
1 204 214 0
-1 -204 -214 0
1 205 215 0
-1 -205 -215 0
1 206 216 0
-1 -206 -216 0
1 207 217 0
-1 -207 -217 0
1 208 218 0
-1 -208 -218 0
1 209 219 0
-1 -209 -219 0
