certificates/rado_a18_c8_N219.drat
1 -212 -219 0
-212 -213 -219 0
-12 212 -219 0
-213 -214 -215 -217 -219 0
212 -214 -215 -217 -219 0
-214 -215 -219 -217 0
d -213 -214 -215 -217 -219 0
-212 -215 -219 0
-215 -216 -217 -219 0
212 215 -217 -219 0
215 -217 -219 0
d 212 215 -217 -219 0
-217 -218 -219 0
212 217 -219 0
217 -219 0
d 212 217 -219 0
11 -219 0
212 -219 0
d -12 212 -219 0
-215 -219 0
d -212 -215 -219 0
-217 -219 0
d 215 -217 -219 0
-219 0
-11 -217 0
11 0
-1 0
-201 0
-217 0
209 0
207 0
211 0
191 0
-19 0
-17 0
-21 0
29 0
9 0
27 0
7 0
31 0
-147 0
-183 0
-163 0
-181 0
-199 0
-165 0
-55 0
-57 0
-37 0
-53 0
-35 0
-125 0
-161 0
-127 0
-145 0
-197 0
-129 0
-91 0
-93 0
-73 0
-89 0
-149 0
-185 0
157 0
137 0
193 0
173 0
153 0
171 0
189 0
175 0
155 0
65 0
45 0
67 0
47 0
63 0
43 0
25 0
115 0
135 0
151 0
117 0
187 0
139 0
119 0
81 0
101 0
103 0
83 0
99 0
79 0
159 0
195 0
-3 0
-39 0
-75 0
-71 0
-215 0
-179 0
-143 0
-33 0
-69 0
-2 0
-5 0
-41 0
-77 0
48 0
13 0
49 0
169 0
85 0
51 0
23 0
121 0
61 0
205 0
133 0
97 0
4 0
59 0
12 0
30 0
213 0
84 0
0
